80 8
15 80
4 70
20 96
30 13
44 19
67 60
73 26
35 9
58 84
11 11
20 46
43 64
88 46
57 92
50 21
77 78
76 14
5 85
62 66
99 38
40 63
50 87
2 93
34 60
94 18
57 13
94 67
58 54
2 92
67 62
80 95
1 7
47 83
66 19
65 40
32 85
68 80
3 100
48 5
47 31
54 28
46 78
86 49
83 51
94 74
54 35
11 66
36 11
72 55
74 82
21 28
97 82
8 85
83 34
96 60
69 90
77 11
79 30
43 46
17 32
56 55
88 7
80 11
8 47
19 20
5 81
57 64
47 34
53 80
84 75
96 60
58 72
100 41
16 64
58 97
31 9
32 27
76 33
49 20
72 62
480 578
683 786
564 681
407 498
441 518
663 778
444 510
676 767
